25
975 580
595 360
565 575
1530 5
560 365
475 960
420 555
345 750
145 665
555 815
830 610
770 610
1250 400
25 230
795 645
525 1000
1465 200
1150 1160
300 465
1220 580
480 415
700 500
725 370
830 485
945 685
